c colouring generated by benchmark framework
p edge 1000 449449
v 1 224
v 2 277
v 3 30
v 4 5
v 5 34
v 6 7
v 7 285
v 8 257
v 9 314
v 10 110
v 11 243
v 12 251
v 13 169
v 14 38
v 15 15
v 16 75
v 17 106
v 18 344
v 19 192
v 20 256
v 21 319
v 22 48
v 23 112
v 24 294
v 25 172
v 26 286
v 27 153
v 28 49
v 29 60
v 30 183
v 31 135
v 32 295
v 33 0
v 34 270
v 35 184
v 36 117
v 37 1
v 38 160
v 39 252
v 40 288
v 41 235
v 42 169
v 43 173
v 44 199
v 45 111
v 46 250
v 47 162
v 48 236
v 49 156
v 50 265
v 51 69
v 52 142
v 53 4
v 54 141
v 55 291
v 56 110
v 57 91
v 58 82
v 59 198
v 60 132
v 61 287
v 62 340
v 63 7
v 64 282
v 65 190
v 66 170
v 67 195
v 68 283
v 69 310
v 70 29
v 71 192
v 72 132
v 73 179
v 74 91
v 75 270
v 76 324
v 77 143
v 78 57
v 79 130
v 80 187
v 81 140
v 82 136
v 83 291
v 84 55
v 85 23
v 86 86
v 87 213
v 88 113
v 89 335
v 90 25
v 91 152
v 92 197
v 93 121
v 94 34
v 95 246
v 96 24
v 97 69
v 98 146
v 99 137
v 100 252
v 101 175
v 102 224
v 103 93
v 104 95
v 105 134
v 106 203
v 107 57
v 108 191
v 109 111
v 110 8
v 111 88
v 112 84
v 113 4
v 114 5
v 115 40
v 116 107
v 117 118
v 118 100
v 119 291
v 120 94
v 121 139
v 122 272
v 123 247
v 124 51
v 125 37
v 126 166
v 127 235
v 128 193
v 129 241
v 130 140
v 131 96
v 132 281
v 133 68
v 134 238
v 135 80
v 136 64
v 137 81
v 138 14
v 139 294
v 140 227
v 141 114
v 142 41
v 143 267
v 144 109
v 145 177
v 146 110
v 147 274
v 148 72
v 149 188
v 150 21
v 151 228
v 152 259
v 153 100
v 154 155
v 155 247
v 156 343
v 157 114
v 158 15
v 159 21
v 160 218
v 161 209
v 162 109
v 163 95
v 164 38
v 165 196
v 166 83
v 167 33
v 168 94
v 169 247
v 170 4
v 171 18
v 172 289
v 173 145
v 174 137
v 175 304
v 176 109
v 177 118
v 178 179
v 179 74
v 180 151
v 181 241
v 182 181
v 183 66
v 184 165
v 185 68
v 186 118
v 187 125
v 188 8
v 189 307
v 190 335
v 191 310
v 192 201
v 193 197
v 194 37
v 195 106
v 196 18
v 197 54
v 198 50
v 199 127
v 200 122
v 201 255
v 202 119
v 203 182
v 204 178
v 205 129
v 206 97
v 207 214
v 208 128
v 209 45
v 210 2
v 211 226
v 212 197
v 213 316
v 214 115
v 215 194
v 216 167
v 217 101
v 218 30
v 219 227
v 220 96
v 221 339
v 222 19
v 223 43
v 224 72
v 225 180
v 226 173
v 227 205
v 228 158
v 229 189
v 230 11
v 231 46
v 232 81
v 233 241
v 234 113
v 235 177
v 236 202
v 237 189
v 238 133
v 239 6
v 240 265
v 241 333
v 242 88
v 243 16
v 244 17
v 245 253
v 246 5
v 247 232
v 248 197
v 249 134
v 250 85
v 251 56
v 252 110
v 253 16
v 254 124
v 255 263
v 256 212
v 257 41
v 258 28
v 259 151
v 260 23
v 261 169
v 262 244
v 263 285
v 264 24
v 265 157
v 266 36
v 267 2
v 268 233
v 269 227
v 270 216
v 271 2
v 272 341
v 273 36
v 274 193
v 275 327
v 276 210
v 277 249
v 278 300
v 279 48
v 280 16
v 281 13
v 282 87
v 283 253
v 284 284
v 285 299
v 286 346
v 287 108
v 288 185
v 289 137
v 290 74
v 291 94
v 292 263
v 293 82
v 294 279
v 295 280
v 296 311
v 297 283
v 298 282
v 299 231
v 300 154
v 301 56
v 302 296
v 303 193
v 304 105
v 305 217
v 306 97
v 307 125
v 308 7
v 309 66
v 310 134
v 311 171
v 312 116
v 313 214
v 314 330
v 315 194
v 316 80
v 317 314
v 318 19
v 319 195
v 320 162
v 321 124
v 322 237
v 323 188
v 324 256
v 325 187
v 326 82
v 327 174
v 328 120
v 329 205
v 330 78
v 331 205
v 332 290
v 333 61
v 334 70
v 335 20
v 336 293
v 337 326
v 338 66
v 339 18
v 340 3
v 341 35
v 342 281
v 343 136
v 344 53
v 345 249
v 346 121
v 347 230
v 348 85
v 349 209
v 350 33
v 351 158
v 352 145
v 353 224
v 354 211
v 355 213
v 356 113
v 357 229
v 358 103
v 359 105
v 360 77
v 361 44
v 362 63
v 363 204
v 364 93
v 365 165
v 366 56
v 367 161
v 368 238
v 369 32
v 370 297
v 371 147
v 372 176
v 373 180
v 374 196
v 375 89
v 376 208
v 377 246
v 378 27
v 379 25
v 380 148
v 381 63
v 382 62
v 383 64
v 384 203
v 385 336
v 386 269
v 387 181
v 388 92
v 389 65
v 390 278
v 391 201
v 392 191
v 393 265
v 394 133
v 395 61
v 396 153
v 397 230
v 398 279
v 399 307
v 400 104
v 401 186
v 402 325
v 403 47
v 404 234
v 405 116
v 406 15
v 407 136
v 408 115
v 409 231
v 410 123
v 411 138
v 412 43
v 413 42
v 414 272
v 415 176
v 416 102
v 417 131
v 418 216
v 419 198
v 420 11
v 421 313
v 422 320
v 423 269
v 424 24
v 425 237
v 426 32
v 427 80
v 428 228
v 429 170
v 430 254
v 431 245
v 432 254
v 433 236
v 434 170
v 435 213
v 436 144
v 437 184
v 438 323
v 439 321
v 440 44
v 441 103
v 442 239
v 443 119
v 444 78
v 445 164
v 446 241
v 447 126
v 448 39
v 449 183
v 450 164
v 451 179
v 452 152
v 453 108
v 454 168
v 455 39
v 456 59
v 457 43
v 458 176
v 459 113
v 460 152
v 461 213
v 462 3
v 463 17
v 464 199
v 465 221
v 466 67
v 467 83
v 468 55
v 469 256
v 470 260
v 471 296
v 472 296
v 473 74
v 474 254
v 475 62
v 476 71
v 477 220
v 478 154
v 479 120
v 480 11
v 481 64
v 482 276
v 483 185
v 484 11
v 485 244
v 486 184
v 487 102
v 488 13
v 489 202
v 490 289
v 491 258
v 492 217
v 493 238
v 494 267
v 495 121
v 496 2
v 497 81
v 498 234
v 499 155
v 500 6
v 501 112
v 502 24
v 503 248
v 504 295
v 505 95
v 506 345
v 507 1
v 508 342
v 509 261
v 510 268
v 511 137
v 512 204
v 513 62
v 514 143
v 515 172
v 516 1
v 517 190
v 518 233
v 519 10
v 520 132
v 521 28
v 522 14
v 523 200
v 524 139
v 525 300
v 526 182
v 527 31
v 528 77
v 529 225
v 530 321
v 531 144
v 532 242
v 533 185
v 534 260
v 535 57
v 536 248
v 537 149
v 538 99
v 539 92
v 540 301
v 541 309
v 542 77
v 543 25
v 544 146
v 545 153
v 546 16
v 547 275
v 548 287
v 549 159
v 550 59
v 551 179
v 552 60
v 553 183
v 554 73
v 555 22
v 556 51
v 557 234
v 558 111
v 559 86
v 560 195
v 561 322
v 562 226
v 563 232
v 564 178
v 565 334
v 566 139
v 567 201
v 568 144
v 569 99
v 570 229
v 571 216
v 572 97
v 573 19
v 574 172
v 575 47
v 576 126
v 577 242
v 578 286
v 579 0
v 580 268
v 581 293
v 582 50
v 583 98
v 584 207
v 585 141
v 586 54
v 587 144
v 588 231
v 589 46
v 590 329
v 591 277
v 592 208
v 593 210
v 594 305
v 595 58
v 596 166
v 597 10
v 598 174
v 599 181
v 600 26
v 601 107
v 602 75
v 603 51
v 604 215
v 605 120
v 606 49
v 607 101
v 608 220
v 609 257
v 610 85
v 611 100
v 612 131
v 613 125
v 614 165
v 615 300
v 616 207
v 617 53
v 618 318
v 619 83
v 620 187
v 621 126
v 622 140
v 623 89
v 624 97
v 625 115
v 626 6
v 627 67
v 628 119
v 629 27
v 630 55
v 631 9
v 632 160
v 633 130
v 634 193
v 635 251
v 636 322
v 637 60
v 638 56
v 639 84
v 640 259
v 641 75
v 642 31
v 643 128
v 644 138
v 645 280
v 646 41
v 647 171
v 648 281
v 649 122
v 650 142
v 651 129
v 652 317
v 653 20
v 654 248
v 655 210
v 656 89
v 657 211
v 658 123
v 659 284
v 660 164
v 661 263
v 662 42
v 663 34
v 664 123
v 665 149
v 666 54
v 667 102
v 668 235
v 669 266
v 670 200
v 671 313
v 672 158
v 673 198
v 674 98
v 675 328
v 676 84
v 677 225
v 678 161
v 679 154
v 680 226
v 681 66
v 682 222
v 683 20
v 684 239
v 685 168
v 686 306
v 687 45
v 688 86
v 689 159
v 690 207
v 691 42
v 692 27
v 693 44
v 694 104
v 695 68
v 696 139
v 697 223
v 698 167
v 699 99
v 700 191
v 701 37
v 702 271
v 703 331
v 704 94
v 705 131
v 706 106
v 707 103
v 708 101
v 709 163
v 710 130
v 711 70
v 712 182
v 713 205
v 714 157
v 715 243
v 716 8
v 717 9
v 718 35
v 719 79
v 720 50
v 721 245
v 722 223
v 723 219
v 724 221
v 725 162
v 726 59
v 727 309
v 728 164
v 729 209
v 730 318
v 731 93
v 732 199
v 733 202
v 734 169
v 735 239
v 736 91
v 737 186
v 738 9
v 739 207
v 740 135
v 741 32
v 742 283
v 743 88
v 744 78
v 745 315
v 746 293
v 747 219
v 748 326
v 749 146
v 750 62
v 751 298
v 752 218
v 753 22
v 754 0
v 755 72
v 756 160
v 757 147
v 758 12
v 759 77
v 760 65
v 761 127
v 762 108
v 763 71
v 764 155
v 765 273
v 766 12
v 767 306
v 768 338
v 769 266
v 770 262
v 771 264
v 772 12
v 773 211
v 774 212
v 775 148
v 776 47
v 777 286
v 778 206
v 779 91
v 780 285
v 781 240
v 782 78
v 783 71
v 784 182
v 785 143
v 786 149
v 787 301
v 788 332
v 789 275
v 790 105
v 791 166
v 792 304
v 793 89
v 794 277
v 795 220
v 796 71
v 797 79
v 798 260
v 799 140
v 800 52
v 801 3
v 802 26
v 803 40
v 804 204
v 805 158
v 806 341
v 807 334
v 808 238
v 809 10
v 810 160
v 811 273
v 812 230
v 813 52
v 814 236
v 815 52
v 816 61
v 817 30
v 818 101
v 819 200
v 820 302
v 821 288
v 822 312
v 823 0
v 824 100
v 825 279
v 826 53
v 827 90
v 828 151
v 829 189
v 830 253
v 831 227
v 832 150
v 833 233
v 834 104
v 835 29
v 836 194
v 837 275
v 838 240
v 839 98
v 840 249
v 841 115
v 842 218
v 843 271
v 844 223
v 845 167
v 846 337
v 847 76
v 848 14
v 849 255
v 850 266
v 851 199
v 852 262
v 853 297
v 854 20
v 855 87
v 856 92
v 857 83
v 858 90
v 859 58
v 860 266
v 861 40
v 862 303
v 863 73
v 864 150
v 865 133
v 866 124
v 867 146
v 868 141
v 869 222
v 870 31
v 871 29
v 872 108
v 873 49
v 874 73
v 875 292
v 876 114
v 877 173
v 878 107
v 879 292
v 880 148
v 881 206
v 882 168
v 883 116
v 884 196
v 885 115
v 886 12
v 887 298
v 888 76
v 889 189
v 890 158
v 891 36
v 892 21
v 893 190
v 894 135
v 895 274
v 896 188
v 897 163
v 898 109
v 899 79
v 900 312
v 901 44
v 902 63
v 903 174
v 904 127
v 905 248
v 906 10
v 907 268
v 908 159
v 909 122
v 910 128
v 911 258
v 912 251
v 913 28
v 914 17
v 915 76
v 916 288
v 917 112
v 918 175
v 919 225
v 920 320
v 921 90
v 922 323
v 923 308
v 924 96
v 925 203
v 926 88
v 927 337
v 928 39
v 929 22
v 930 69
v 931 25
v 932 111
v 933 87
v 934 142
v 935 15
v 936 65
v 937 278
v 938 240
v 939 347
v 940 18
v 941 13
v 942 145
v 943 46
v 944 192
v 945 67
v 946 64
v 947 147
v 948 33
v 949 26
v 950 28
v 951 186
v 952 23
v 953 116
v 954 252
v 955 119
v 956 258
v 957 72
v 958 48
v 959 138
v 960 145
v 961 264
v 962 58
v 963 245
v 964 156
v 965 151
v 966 45
v 967 14
v 968 244
v 969 250
v 970 117
v 971 215
v 972 156
v 973 161
v 974 157
v 975 324
v 976 217
v 977 38
v 978 117
v 979 271
v 980 229
v 981 232
v 982 96
v 983 242
v 984 85
v 985 129
v 986 299
v 987 54
v 988 237
v 989 208
v 990 180
v 991 259
v 992 221
v 993 178
v 994 21
v 995 222
v 996 261
v 997 68
v 998 243
v 999 35
v 1000 7
